
        $ From http://www.csplib.org/Problems/prob009/data/helmut.pdf
        $ Problem number 202
        $ Sequence length : 25
        language ESSENCE' 1.0
        letting sizemaster be 614
        letting sizes be sequence(15,22,24,31,33,49,53,54,57,60,63,68,74,81,83,104,109,151,155,163,167,217,229,230,234)
        